
n_res = 6;
rcap = [81, 85, 87, 86, 825, 862];
rtype = [1, 1, 1, 1, 2, 2];
n_tasks = 50;
modes =  [{1, 2, 3}, {4, 5, 6}, {7, 8, 9}, {10, 11, 12}, {13, 14, 15}, {16, 17, 18}, {19, 20, 21}, {22, 23, 24}, {25, 26, 27}, {28, 29, 30}, {31, 32, 33}, {34, 35, 36}, {37, 38, 39}, {40, 41, 42}, {43, 44, 45}, {46, 47, 48}, {49, 50, 51}, {52, 53, 54}, {55, 56, 57}, {58, 59, 60}, {61, 62, 63}, {64, 65, 66}, {67, 68, 69}, {70, 71, 72}, {73, 74, 75}, {76, 77, 78}, {79, 80, 81}, {82, 83, 84}, {85, 86, 87}, {88, 89, 90}, {91, 92, 93}, {94, 95, 96}, {97, 98, 99}, {100, 101, 102}, {103, 104, 105}, {106, 107, 108}, {109, 110, 111}, {112, 113, 114}, {115, 116, 117}, {118, 119, 120}, {121, 122, 123}, {124, 125, 126}, {127, 128, 129}, {130, 131, 132}, {133, 134, 135}, {136, 137, 138}, {139, 140, 141}, {142, 143, 144}, {145, 146, 147}, {148, 149, 150}];
succ =  [{11, 7, 6, 4}, {14, 12, 11, 6}, {23, 16, 15, 14, 11, 10}, {23, 18, 16, 15, 14, 13, 12}, {23, 10, 7}, {23, 19, 15, 10}, {19, 18, 17, 15, 14}, {26, 23, 18, 17, 15}, {18, 17, 14, 13}, {18, 17, 13}, {30, 26, 24, 22, 21, 20, 19, 18}, {26, 22, 20, 19, 17}, {30, 29, 26, 25, 24, 22, 21, 20}, {30, 29, 26, 25, 24, 21, 20}, {29, 25, 24, 22, 21, 20}, {29, 26, 24, 22, 21, 20}, {33, 30, 25, 24, 21}, {34, 33, 28, 27, 25}, {33, 29, 28, 27, 25}, {37, 34, 33, 28}, {34, 28, 27}, {34, 33, 27}, {37, 24}, {35, 28}, {38, 37, 35, 31}, {28}, {46, 39, 37, 35, 32}, {38, 32, 31}, {37, 32, 31}, {46, 39, 37, 32}, {46, 40, 39, 36}, {43, 40, 36}, {46, 40, 36}, {38, 35}, {50, 48, 45, 43, 42, 40}, {50, 49, 45, 42, 41}, {50, 48, 43, 42, 40}, {48, 45, 42, 40}, {45, 43}, {49, 44}, {48, 47}, {44}, {44}, {47}, {47}, {47}, {}, {}, {}, {}];
n_opt = 150;
dur = [17, 24, 26, 6, 15, 24, 20, 22, 27, 2, 5, 18, 2, 10, 19, 3, 9, 30, 13, 14, 17, 17, 26, 27, 2, 4, 28, 17, 18, 19, 7, 14, 28, 12, 13, 23, 5, 12, 22, 12, 14, 16, 10, 19, 28, 3, 16, 26, 13, 20, 29, 16, 23, 25, 7, 8, 14, 8, 9, 16, 3, 9, 11, 8, 17, 21, 22, 24, 26, 8, 14, 30, 7, 25, 26, 17, 20, 30, 9, 12, 29, 10, 19, 25, 1, 17, 20, 10, 11, 17, 4, 6, 29, 1, 8, 14, 6, 8, 24, 4, 9, 12, 3, 27, 28, 3, 13, 28, 16, 25, 26, 10, 17, 29, 7, 22, 23, 6, 7, 12, 9, 10, 27, 8, 13, 20, 19, 21, 29, 5, 8, 22, 3, 4, 29, 10, 12, 28, 12, 13, 22, 13, 17, 30, 1, 6, 7, 7, 10, 17];
rreq = [|18, 18, 16, 20, 12, 5, 12, 7, 6, 19, 17, 17, 28, 25, 23, 25, 24, 21, 16, 13, 4, 19, 13, 8, 29, 28, 27, 12, 9, 5, 17, 12, 12, 24, 19, 17, 10, 7, 3, 6, 6, 1, 28, 18, 7, 23, 22, 18, 19, 16, 10, 22, 18, 9, 23, 15, 8, 4, 4, 4, 22, 21, 19, 21, 19, 16, 13, 8, 8, 21, 17, 10, 19, 10, 6, 22, 10, 3, 22, 12, 2, 17, 13, 7, 22, 21, 21, 23, 19, 13, 23, 23, 21, 22, 20, 16, 16, 12, 8, 6, 3, 2, 14, 9, 3, 22, 21, 18, 15, 15, 12, 30, 28, 28, 19, 13, 9, 27, 26, 26, 14, 11, 8, 11, 8, 3, 26, 18, 15, 23, 18, 18, 18, 11, 6, 14, 10, 6, 9, 7, 3, 23, 23, 23, 18, 15, 14, 23, 9, 6
 |22, 13, 13, 16, 13, 11, 23, 13, 9, 7, 5, 3, 28, 13, 13, 18, 8, 7, 3, 2, 2, 16, 16, 16, 22, 22, 22, 16, 13, 6, 18, 10, 6, 26, 13, 8, 20, 15, 13, 19, 15, 12, 21, 17, 12, 9, 7, 5, 25, 10, 9, 17, 13, 13, 25, 18, 6, 21, 17, 10, 23, 22, 22, 21, 21, 18, 23, 21, 13, 9, 6, 5, 28, 28, 28, 15, 8, 6, 21, 19, 19, 24, 23, 20, 12, 9, 7, 23, 16, 15, 5, 5, 5, 22, 18, 10, 25, 21, 21, 20, 12, 7, 21, 15, 7, 25, 18, 14, 20, 18, 13, 27, 23, 16, 29, 21, 7, 20, 15, 14, 30, 30, 30, 23, 18, 14, 13, 13, 13, 19, 19, 17, 25, 17, 15, 23, 13, 11, 25, 25, 25, 27, 21, 14, 23, 20, 16, 3, 1, 1
 |16, 14, 11, 17, 14, 10, 20, 19, 19, 21, 21, 16, 23, 22, 22, 24, 22, 22, 23, 17, 13, 23, 19, 18, 15, 14, 11, 12, 10, 6, 21, 12, 1, 17, 11, 2, 24, 21, 20, 19, 13, 12, 17, 16, 12, 11, 10, 9, 22, 21, 21, 17, 15, 15, 25, 23, 18, 28, 27, 23, 20, 19, 19, 21, 12, 6, 16, 15, 8, 11, 11, 11, 18, 17, 13, 23, 21, 17, 17, 10, 7, 2, 1, 1, 9, 8, 5, 11, 7, 5, 16, 9, 7, 4, 3, 2, 1, 1, 1, 13, 10, 4, 15, 15, 6, 21, 18, 16, 20, 12, 5, 21, 17, 11, 27, 18, 7, 11, 10, 9, 20, 14, 6, 22, 9, 6, 14, 13, 10, 24, 18, 14, 29, 23, 19, 27, 25, 20, 4, 4, 3, 19, 19, 19, 23, 17, 15, 22, 12, 9
 |17, 11, 10, 26, 25, 23, 29, 23, 19, 27, 17, 9, 25, 24, 20, 26, 15, 7, 20, 18, 17, 21, 13, 3, 16, 9, 6, 24, 22, 21, 16, 14, 9, 23, 22, 21, 21, 20, 20, 21, 19, 18, 22, 18, 18, 19, 17, 12, 22, 18, 14, 15, 14, 14, 18, 14, 7, 27, 27, 27, 28, 14, 5, 18, 12, 9, 23, 23, 17, 25, 16, 12, 6, 5, 2, 26, 25, 24, 19, 19, 19, 8, 6, 6, 26, 20, 18, 19, 11, 10, 17, 17, 17, 25, 23, 21, 22, 21, 21, 26, 23, 21, 20, 16, 8, 21, 15, 9, 13, 11, 10, 30, 28, 28, 26, 25, 21, 22, 19, 15, 14, 12, 7, 24, 22, 14, 27, 20, 16, 18, 14, 3, 14, 14, 13, 9, 6, 5, 24, 22, 19, 20, 13, 12, 11, 10, 9, 16, 12, 12
 |27, 27, 27, 18, 11, 9, 18, 18, 15, 22, 22, 20, 24, 21, 16, 19, 15, 12, 22, 16, 14, 20, 16, 11, 17, 15, 10, 23, 23, 20, 15, 15, 9, 16, 15, 15, 9, 6, 5, 22, 14, 10, 19, 14, 5, 15, 8, 6, 23, 21, 20, 23, 16, 10, 25, 25, 24, 22, 13, 8, 26, 25, 24, 25, 21, 14, 29, 28, 28, 12, 7, 5, 21, 18, 16, 13, 12, 12, 18, 14, 11, 12, 10, 4, 15, 11, 10, 20, 16, 10, 3, 1, 1, 15, 12, 10, 14, 13, 10, 11, 9, 7, 19, 13, 11, 14, 14, 10, 11, 11, 3, 16, 11, 9, 16, 12, 10, 26, 21, 13, 23, 23, 22, 18, 16, 8, 27, 23, 19, 21, 20, 17, 19, 14, 8, 17, 14, 13, 8, 8, 8, 17, 7, 6, 12, 12, 12, 4, 3, 1
 |19, 12, 8, 10, 7, 3, 4, 3, 3, 27, 26, 26, 9, 9, 7, 15, 10, 10, 25, 25, 24, 27, 23, 22, 23, 20, 13, 13, 8, 6, 18, 18, 17, 23, 20, 19, 25, 19, 15, 23, 20, 19, 11, 11, 10, 28, 18, 13, 5, 4, 1, 30, 17, 9, 17, 12, 10, 29, 17, 15, 21, 18, 16, 28, 28, 28, 24, 16, 12, 23, 18, 10, 15, 10, 6, 1, 1, 1, 28, 21, 10, 27, 27, 25, 29, 28, 27, 19, 17, 14, 25, 23, 18, 18, 18, 16, 26, 23, 15, 24, 22, 20, 5, 3, 3, 18, 10, 9, 28, 22, 20, 7, 7, 7, 19, 15, 13, 26, 24, 22, 8, 4, 1, 7, 5, 5, 12, 10, 7, 16, 14, 14, 1, 1, 1, 27, 18, 13, 23, 22, 22, 18, 17, 16, 11, 6, 4, 21, 18, 17|];